Input: forum-13crafb.prec25.dzn
============================================================
Total Runtime: 13.5787 seconds
Input parsing: 0.0012 seconds
Constraint building: 2.3382 seconds
MaxSAT solving: 7.3641 seconds
============================================================

Total variables: 527367
Total clauses: 892179
MaxSAT found with cost: 0
NO SOLUTION FOUND
